# Generated by ConicBenchmarkUtilities.jl
VER
2

OBJSENSE
MIN

VAR
42 1
F 42

INT
10
8
9
10
11
12
13
14
15
16
17

CON
120 108
L= 1
L= 1
L= 1
L= 1
L= 1
L= 1
L= 1
EXP 3
L+ 1
L+ 1
L+ 1
EXP 3
L+ 1
L+ 1
L+ 1
L+ 1
L+ 1
L+ 1
L+ 1
EXP 3
L+ 1
L+ 1
L+ 1
L+ 1
L+ 1
L+ 1
L+ 1
L+ 1
L+ 1
L+ 1
EXP 3
L+ 1
L+ 1
L+ 1
EXP 3
L+ 1
L+ 1
L+ 1
EXP 3
L+ 1
L+ 1
L+ 1
L+ 1
L+ 1
L+ 1
L+ 1
L+ 1
L+ 1
L+ 1
L+ 1
L= 1
L+ 1
L+ 1
L+ 1
L+ 1
L+ 1
L+ 1
L+ 1
L+ 1
L+ 1
L+ 1
L+ 1
L+ 1
L+ 1
L+ 1
L+ 1
L+ 1
L+ 1
L+ 1
L+ 1
L+ 1
L+ 1
L+ 1
L+ 1
L+ 1
L+ 1
L+ 1
L+ 1
L+ 1
L+ 1
L+ 1
L+ 1
L+ 1
L+ 1
L+ 1
L+ 1
L+ 1
L+ 1
L+ 1
L+ 1
L+ 1
L+ 1
L+ 1
L+ 1
L+ 1
L+ 1
L+ 1
L+ 1
L+ 1
L+ 1
L+ 1
L+ 1
L+ 1
L+ 1
L+ 1
L+ 1
L+ 1
L+ 1

OBJACOORD
1
18 -1.0

ACOORD
214
0 0 5.0
3 0 -1.0
80 0 1.0
0 1 -2.0
31 1 0.5
32 1 -0.5
34 1 -1.0
85 1 1.0
86 1 -1.0
0 2 200.0
6 2 -1.0
94 2 1.0
0 3 250.0
39 3 -1.0
41 3 -1.0
95 3 1.0
0 4 200.0
45 4 -1.0
47 4 -1.0
96 4 1.0
0 5 200.0
51 5 -1.0
53 5 -1.0
97 5 1.0
0 6 500.0
54 6 -1.0
55 6 1.0
57 6 -1.0
98 6 1.0
0 7 350.0
58 7 -1.0
59 7 1.0
61 7 -1.0
99 7 1.0
0 8 -5.0
10 8 -1.0
11 8 10.0
12 8 2.39789527279837
62 8 1.0
65 8 1.0
66 8 1.0
67 8 1.0
100 8 1.0
101 8 -1.0
0 9 -8.0
16 9 -1.0
17 9 10.0
18 9 2.87747432735804
62 9 1.0
65 9 1.0
66 9 1.0
67 9 1.0
102 9 1.0
103 9 -1.0
0 10 -6.0
19 10 -1.0
20 10 -1.0
21 10 2.87747432735804
22 10 2.15810574551853
63 10 -1.0
65 10 -1.0
68 10 1.0
69 10 1.0
104 10 1.0
105 10 -1.0
0 11 -10.0
26 11 -1.0
27 11 2.87747432735804
28 11 2.03277599268042
64 11 -1.0
66 11 -1.0
70 11 1.0
106 11 1.0
107 11 -1.0
0 12 -6.0
29 12 -1.0
30 12 -1.0
31 12 -1.0
32 12 -1.0
33 12 2.87747432735804
34 12 7.0
35 12 3.5
67 12 -1.0
71 12 1.0
72 12 1.0
108 12 1.0
109 12 -1.0
0 13 -7.0
39 13 -1.0
40 13 2.15810574551853
41 13 1.43746550029693
63 13 1.0
68 13 -1.0
110 13 1.0
111 13 -1.0
0 14 -4.0
45 14 -1.0
46 14 2.15810574551853
47 14 1.03497516021379
63 14 1.0
69 14 -1.0
112 14 1.0
113 14 -1.0
0 15 -5.0
51 15 -1.0
52 15 2.03277599268042
53 15 1.10947836929589
64 15 1.0
70 15 -1.0
114 15 1.0
115 15 -1.0
0 16 -2.0
54 16 -1.0
55 16 -1.0
56 16 3.5
57 16 3.15
71 16 -1.0
116 16 1.0
117 16 -1.0
0 17 -4.0
58 17 -1.0
59 17 -1.0
60 17 3.5
61 17 2.1
72 17 -1.0
118 17 1.0
119 17 -1.0
0 18 -1.0
1 19 1.0
73 19 1.0
74 19 -1.0
1 20 -1.0
7 20 1.0
11 20 -1.0
75 20 1.0
1 21 -1.0
13 21 1.0
17 21 -1.0
76 21 1.0
2 22 -1.0
10 22 -1.0
12 22 -1.0
77 22 1.0
2 23 -1.0
16 23 -1.0
18 23 -1.0
78 23 1.0
2 24 1.0
3 24 1.0
79 24 1.0
3 25 -1.0
4 25 1.0
81 25 1.0
4 26 -1.0
19 26 0.75
20 26 -0.75
21 26 -1.0
82 26 1.0
4 27 -1.0
23 27 1.0
27 27 -1.0
83 27 1.0
4 28 -1.0
29 28 1.0
30 28 -1.0
33 28 -1.0
84 28 1.0
5 29 1.0
19 29 -1.0
20 29 1.0
22 29 -1.0
87 29 1.0
5 30 -1.0
36 30 1.0
40 30 -1.0
90 30 1.0
5 31 -1.0
42 31 1.0
46 31 -1.0
91 31 1.0
6 32 1.0
29 32 -1.0
30 32 1.0
31 32 -1.0
32 32 1.0
35 32 -1.0
89 32 1.0
6 33 -1.0
54 33 0.9
55 33 -0.9
56 33 -1.0
92 33 1.0
6 34 -1.0
58 34 0.6
59 34 -0.6
60 34 -1.0
93 34 1.0
9 35 1.0
10 35 1.0
15 36 1.0
16 36 1.2
25 37 1.0
26 37 1.5
26 38 -1.0
28 38 -1.0
48 38 1.0
52 38 -1.0
88 38 1.0
38 39 1.0
39 39 1.25
44 40 1.0
45 40 0.9
50 41 1.0
51 41 1.0

BCOORD
41
7 1.0
8 1.0
10 1.0
13 1.0
14 1.0
16 1.0
19 1.0
20 1.0
23 1.0
24 1.0
26 1.0
29 1.0
30 1.0
31 1.0
32 1.0
36 1.0
37 1.0
39 1.0
42 1.0
43 1.0
45 1.0
48 1.0
49 1.0
51 1.0
54 1.0
55 1.0
58 1.0
59 1.0
62 -1.0
74 10.0
86 7.0
101 1.0
103 1.0
105 1.0
107 1.0
109 1.0
111 1.0
113 1.0
115 1.0
117 1.0
119 1.0
